40
34
43
48
48
35
42
35
43
39
39
46
47
46
43
30
37
42
49
45
17
25
12
11
25
11
13
26
23
28
29
14
21
14
29
25
10
24
26
19
11
25
19
24
16
20
14
23
20
21
11
15
13
20
28
16
13
25
22
13
19
20
29
22
21
11
19
10
17
27
27
18
24
20
18
24
23
18
24
15
14
21
19
19
28
19
20
23
12
26
19
16
29
29
10
15
21
12
27
23